min: c;

c = 2.99090789937186 * u2_t7_h3 + 2.87490514726069 * u2_t7_h4 + 3.14867927140081 * u2_t2_h5 + 3.14867927140081 * u2_t3_h5 + 3.14867927140081 * u2_t7_h5 + 4.01199603851974 * u2_t2_h6 + 4.01199603851974 * u2_t3_h6 + 4.01199603851974 * u2_t4_h6 + 4.01199603851974 * u2_t7_h6 + 4.01199603851974 * u2_t10_h6 + 4.2841049057867 * u2_t2_h7 + 4.2841049057867 * u2_t3_h7 + 4.2841049057867 * u2_t4_h7 + 4.2841049057867 * u2_t7_h7 + 4.2841049057867 * u2_t10_h7 + 5.25603420354519 * u2_t2_h8 + 5.25603420354519 * u2_t3_h8 + 5.25603420354519 * u2_t4_h8 + 5.25603420354519 * u2_t7_h8 + 5.25603420354519 * u2_t10_h8 + 5.15850277359381 * u2_t2_h9 + 5.15850277359381 * u2_t3_h9 + 5.15850277359381 * u2_t4_h9 + 5.15850277359381 * u2_t7_h9 + 5.15850277359381 * u2_t10_h9 + 5.08633459122471 * u2_t2_h10 + 5.08633459122471 * u2_t3_h10 + 5.08633459122471 * u2_t4_h10 + 5.08633459122471 * u2_t7_h10 + 5.08633459122471 * u2_t10_h10 + 4.2491720723628 * u2_t1_h11 + 4.2491720723628 * u2_t2_h11 + 4.2491720723628 * u2_t3_h11 + 4.2491720723628 * u2_t4_h11 + 4.2491720723628 * u2_t7_h11 + 4.2491720723628 * u2_t10_h11 + 5.75163218230343 * u2_t1_h12 + 5.75163218230343 * u2_t3_h12 + 5.75163218230343 * u2_t4_h12 + 5.75163218230343 * u2_t7_h12 + 4.59943409338097 * u2_t1_h13 + 4.59943409338097 * u2_t3_h13 + 4.59943409338097 * u2_t4_h13 + 4.59943409338097 * u2_t7_h13 + 4.59943409338097 * u2_t9_h13 + 5.48865583131397 * u2_t1_h14 + 5.48865583131397 * u2_t3_h14 + 5.48865583131397 * u2_t4_h14 + 5.48865583131397 * u2_t7_h14 + 5.48865583131397 * u2_t9_h14 + 6.36973084920262 * u2_t1_h15 + 6.36973084920262 * u2_t3_h15 + 6.36973084920262 * u2_t4_h15 + 6.36973084920262 * u2_t7_h15 + 6.36973084920262 * u2_t9_h15 + 5.57317327972904 * u2_t1_h16 + 5.57317327972904 * u2_t3_h16 + 5.57317327972904 * u2_t4_h16 + 5.57317327972904 * u2_t7_h16 + 5.57317327972904 * u2_t9_h16 + 6.6033270618101 * u2_t1_h17 + 6.6033270618101 * u2_t3_h17 + 6.6033270618101 * u2_t4_h17 + 6.6033270618101 * u2_t7_h17 + 6.6033270618101 * u2_t9_h17 + 6.50219764557237 * u2_t1_h18 + 6.50219764557237 * u2_t3_h18 + 6.50219764557237 * u2_t4_h18 + 6.50219764557237 * u2_t6_h18 + 6.50219764557237 * u2_t7_h18 + 5.99224160429987 * u2_t1_h19 + 5.99224160429987 * u2_t3_h19 + 5.99224160429987 * u2_t4_h19 + 5.99224160429987 * u2_t5_h19 + 5.99224160429987 * u2_t6_h19 + 5.99224160429987 * u2_t7_h19 + 5.41230433115191 * u2_t1_h20 + 5.41230433115191 * u2_t3_h20 + 5.41230433115191 * u2_t4_h20 + 5.41230433115191 * u2_t6_h20 + 5.41230433115191 * u2_t7_h20 + 4.78940650285268 * u2_t1_h21 + 4.78940650285268 * u2_t3_h21 + 4.78940650285268 * u2_t6_h21 + 4.78940650285268 * u2_t7_h21 + 4.78940650285268 * u2_t8_h21 + 6.02077312268415 * u2_t1_h22 + 6.02077312268415 * u2_t3_h22 + 6.02077312268415 * u2_t7_h22 + 6.02077312268415 * u2_t8_h22 + 5.52628429035552 * u2_t3_h23 + 5.52628429035552 * u2_t7_h23 + 5.52628429035552 * u2_t8_h23;
0 <= u2_t1_h11 <= 1;
0 <= u2_t1_h12 <= 1;
0 <= u2_t1_h13 <= 1;
0 <= u2_t1_h14 <= 1;
0 <= u2_t1_h15 <= 1;
0 <= u2_t1_h16 <= 1;
0 <= u2_t1_h17 <= 1;
0 <= u2_t1_h18 <= 1;
0 <= u2_t1_h19 <= 1;
0 <= u2_t1_h20 <= 1;
0 <= u2_t1_h21 <= 1;
0 <= u2_t1_h22 <= 1;
u2_t1_h11 + u2_t1_h12 + u2_t1_h13 + u2_t1_h14 + u2_t1_h15 + u2_t1_h16 + u2_t1_h17 + u2_t1_h18 + u2_t1_h19 + u2_t1_h20 + u2_t1_h21 + u2_t1_h22 = 2;
0 <= u2_t2_h5 <= 1;
0 <= u2_t2_h6 <= 1;
0 <= u2_t2_h7 <= 1;
0 <= u2_t2_h8 <= 1;
0 <= u2_t2_h9 <= 1;
0 <= u2_t2_h10 <= 1;
0 <= u2_t2_h11 <= 1;
u2_t2_h5 + u2_t2_h6 + u2_t2_h7 + u2_t2_h8 + u2_t2_h9 + u2_t2_h10 + u2_t2_h11 = 2;
0 <= u2_t3_h5 <= 1;
0 <= u2_t3_h6 <= 1;
0 <= u2_t3_h7 <= 1;
0 <= u2_t3_h8 <= 1;
0 <= u2_t3_h9 <= 1;
0 <= u2_t3_h10 <= 1;
0 <= u2_t3_h11 <= 1;
0 <= u2_t3_h12 <= 1;
0 <= u2_t3_h13 <= 1;
0 <= u2_t3_h14 <= 1;
0 <= u2_t3_h15 <= 1;
0 <= u2_t3_h16 <= 1;
0 <= u2_t3_h17 <= 1;
0 <= u2_t3_h18 <= 1;
0 <= u2_t3_h19 <= 1;
0 <= u2_t3_h20 <= 1;
0 <= u2_t3_h21 <= 1;
0 <= u2_t3_h22 <= 1;
0 <= u2_t3_h23 <= 1;
u2_t3_h5 + u2_t3_h6 + u2_t3_h7 + u2_t3_h8 + u2_t3_h9 + u2_t3_h10 + u2_t3_h11 + u2_t3_h12 + u2_t3_h13 + u2_t3_h14 + u2_t3_h15 + u2_t3_h16 + u2_t3_h17 + u2_t3_h18 + u2_t3_h19 + u2_t3_h20 + u2_t3_h21 + u2_t3_h22 + u2_t3_h23 = 1;
0 <= u2_t4_h6 <= 1;
0 <= u2_t4_h7 <= 1;
0 <= u2_t4_h8 <= 1;
0 <= u2_t4_h9 <= 1;
0 <= u2_t4_h10 <= 1;
0 <= u2_t4_h11 <= 1;
0 <= u2_t4_h12 <= 1;
0 <= u2_t4_h13 <= 1;
0 <= u2_t4_h14 <= 1;
0 <= u2_t4_h15 <= 1;
0 <= u2_t4_h16 <= 1;
0 <= u2_t4_h17 <= 1;
0 <= u2_t4_h18 <= 1;
0 <= u2_t4_h19 <= 1;
0 <= u2_t4_h20 <= 1;
u2_t4_h6 + u2_t4_h7 + u2_t4_h8 + u2_t4_h9 + u2_t4_h10 + u2_t4_h11 + u2_t4_h12 + u2_t4_h13 + u2_t4_h14 + u2_t4_h15 + u2_t4_h16 + u2_t4_h17 + u2_t4_h18 + u2_t4_h19 + u2_t4_h20 = 3;
0 <= u2_t5_h19 <= 1;
u2_t5_h19 = 1;
0 <= u2_t6_h18 <= 1;
0 <= u2_t6_h19 <= 1;
0 <= u2_t6_h20 <= 1;
0 <= u2_t6_h21 <= 1;
u2_t6_h18 + u2_t6_h19 + u2_t6_h20 + u2_t6_h21 = 2;
0 <= u2_t7_h3 <= 1;
0 <= u2_t7_h4 <= 1;
0 <= u2_t7_h5 <= 1;
0 <= u2_t7_h6 <= 1;
0 <= u2_t7_h7 <= 1;
0 <= u2_t7_h8 <= 1;
0 <= u2_t7_h9 <= 1;
0 <= u2_t7_h10 <= 1;
0 <= u2_t7_h11 <= 1;
0 <= u2_t7_h12 <= 1;
0 <= u2_t7_h13 <= 1;
0 <= u2_t7_h14 <= 1;
0 <= u2_t7_h15 <= 1;
0 <= u2_t7_h16 <= 1;
0 <= u2_t7_h17 <= 1;
0 <= u2_t7_h18 <= 1;
0 <= u2_t7_h19 <= 1;
0 <= u2_t7_h20 <= 1;
0 <= u2_t7_h21 <= 1;
0 <= u2_t7_h22 <= 1;
0 <= u2_t7_h23 <= 1;
u2_t7_h3 + u2_t7_h4 + u2_t7_h5 + u2_t7_h6 + u2_t7_h7 + u2_t7_h8 + u2_t7_h9 + u2_t7_h10 + u2_t7_h11 + u2_t7_h12 + u2_t7_h13 + u2_t7_h14 + u2_t7_h15 + u2_t7_h16 + u2_t7_h17 + u2_t7_h18 + u2_t7_h19 + u2_t7_h20 + u2_t7_h21 + u2_t7_h22 + u2_t7_h23 = 3;
0 <= u2_t8_h21 <= 1;
0 <= u2_t8_h22 <= 1;
0 <= u2_t8_h23 <= 1;
u2_t8_h21 + u2_t8_h22 + u2_t8_h23 = 2;
0 <= u2_t9_h13 <= 1;
0 <= u2_t9_h14 <= 1;
0 <= u2_t9_h15 <= 1;
0 <= u2_t9_h16 <= 1;
0 <= u2_t9_h17 <= 1;
u2_t9_h13 + u2_t9_h14 + u2_t9_h15 + u2_t9_h16 + u2_t9_h17 = 1;
0 <= u2_t10_h6 <= 1;
0 <= u2_t10_h7 <= 1;
0 <= u2_t10_h8 <= 1;
0 <= u2_t10_h9 <= 1;
0 <= u2_t10_h10 <= 1;
0 <= u2_t10_h11 <= 1;
u2_t10_h6 + u2_t10_h7 + u2_t10_h8 + u2_t10_h9 + u2_t10_h10 + u2_t10_h11 = 2;
